## HOW TO RUN:
# -------------------
# reset;
# model hwy.mod;
# data hwy.dat;
# option solver gurobi;
# solve;
# display x, z;
# -------------------
# CORRECT OUTPUT:
#ampl: display x, z;
#x [*] :=
#1  2
#2  4
#3  3
#4  1
#5  6
#6  1
#7  4
#8  4
#;
#
#z = 12
# -------------------
set J := 1, 2, 3, 4, 5, 6, 7, 8;

param u := 
1 4
2 8
3 5
4 7
5 6
6 5
7 6
8 4;

param r := 
1 11
2 3
3 4
4 14
5 2
6 19
7 10
8 13;

param M := 25;

